Nb of jobs, Nb of Machines, Time seed, Machine seed, Upper bound, Lower bound
3,10,-1,-1,-1,-1
Times
5,82,13,96,58,18,11,51,35,53
40,38,64,95,51,82,51,56,56,27
9,54,70,69,95,94,85,25,15,89
Machines
4,3,9,8,6,5,7,10,2,1
8,7,3,10,9,6,4,1,2,5
7,2,6,9,4,10,3,1,5,8
